c Reduced graph for myciel7gb generated by Cyril Grelier
p edge 191 2360
e 1 19
e 1 20
e 1 22
e 1 25
e 1 41
e 1 42
e 1 43
e 1 44
e 1 45
e 1 64
e 1 65
e 1 66
e 1 67
e 1 68
e 1 69
e 1 70
e 1 71
e 1 78
e 1 79
e 1 85
e 1 86
e 1 87
e 1 88
e 1 89
e 1 90
e 1 101
e 1 102
e 1 103
e 1 104
e 1 105
e 1 111
e 1 112
e 1 113
e 1 114
e 1 115
e 1 116
e 1 117
e 1 118
e 1 119
e 1 120
e 1 127
e 1 128
e 1 129
e 1 130
e 1 131
e 1 132
e 1 138
e 1 139
e 1 140
e 1 141
e 1 142
e 1 143
e 1 144
e 1 145
e 1 146
e 1 147
e 1 148
e 1 149
e 1 150
e 1 156
e 1 157
e 1 158
e 1 159
e 1 160
e 1 161
e 1 162
e 1 163
e 1 164
e 1 165
e 1 166
e 1 167
e 1 168
e 1 169
e 1 170
e 1 171
e 1 172
e 1 173
e 1 174
e 1 175
e 1 176
e 1 177
e 1 178
e 1 179
e 1 180
e 1 181
e 1 182
e 1 183
e 1 184
e 1 185
e 1 186
e 1 187
e 1 188
e 1 189
e 1 190
e 1 191
e 2 18
e 2 21
e 2 24
e 2 36
e 2 37
e 2 38
e 2 39
e 2 40
e 2 57
e 2 58
e 2 59
e 2 60
e 2 61
e 2 62
e 2 63
e 2 71
e 2 77
e 2 78
e 2 80
e 2 81
e 2 82
e 2 83
e 2 84
e 2 85
e 2 96
e 2 97
e 2 98
e 2 99
e 2 100
e 2 106
e 2 107
e 2 108
e 2 109
e 2 110
e 2 111
e 2 112
e 2 113
e 2 114
e 2 115
e 2 121
e 2 122
e 2 123
e 2 124
e 2 125
e 2 126
e 2 133
e 2 134
e 2 135
e 2 136
e 2 137
e 2 138
e 2 139
e 2 140
e 2 141
e 2 142
e 2 143
e 2 144
e 2 150
e 2 151
e 2 152
e 2 153
e 2 154
e 2 155
e 2 156
e 2 157
e 2 158
e 2 159
e 2 160
e 2 166
e 2 167
e 2 168
e 2 169
e 2 170
e 2 171
e 2 172
e 2 173
e 2 174
e 2 175
e 2 176
e 2 177
e 2 178
e 2 179
e 2 180
e 2 181
e 2 182
e 2 183
e 2 184
e 2 185
e 2 186
e 2 187
e 2 188
e 2 189
e 2 190
e 2 191
e 3 17
e 3 23
e 3 31
e 3 32
e 3 33
e 3 34
e 3 35
e 3 51
e 3 52
e 3 53
e 3 54
e 3 55
e 3 56
e 3 63
e 3 70
e 3 72
e 3 73
e 3 74
e 3 75
e 3 76
e 3 77
e 3 79
e 3 91
e 3 92
e 3 93
e 3 94
e 3 95
e 3 96
e 3 97
e 3 98
e 3 99
e 3 100
e 3 101
e 3 102
e 3 103
e 3 104
e 3 105
e 3 121
e 3 122
e 3 123
e 3 124
e 3 125
e 3 126
e 3 127
e 3 128
e 3 129
e 3 130
e 3 131
e 3 132
e 3 133
e 3 134
e 3 135
e 3 136
e 3 137
e 3 144
e 3 145
e 3 146
e 3 147
e 3 148
e 3 149
e 3 150
e 3 151
e 3 152
e 3 153
e 3 154
e 3 155
e 3 161
e 3 162
e 3 163
e 3 164
e 3 165
e 3 166
e 3 167
e 3 168
e 3 169
e 3 170
e 3 176
e 3 177
e 3 178
e 3 179
e 3 180
e 3 181
e 3 182
e 3 183
e 3 184
e 3 185
e 3 186
e 3 187
e 3 188
e 3 189
e 3 190
e 3 191
e 4 16
e 4 26
e 4 27
e 4 28
e 4 29
e 4 30
e 4 46
e 4 47
e 4 48
e 4 49
e 4 50
e 4 56
e 4 62
e 4 69
e 4 72
e 4 73
e 4 74
e 4 75
e 4 76
e 4 80
e 4 81
e 4 82
e 4 83
e 4 84
e 4 86
e 4 87
e 4 88
e 4 89
e 4 90
e 4 91
e 4 92
e 4 93
e 4 94
e 4 95
e 4 106
e 4 107
e 4 108
e 4 109
e 4 110
e 4 116
e 4 117
e 4 118
e 4 119
e 4 120
e 4 126
e 4 132
e 4 133
e 4 134
e 4 135
e 4 136
e 4 137
e 4 143
e 4 145
e 4 146
e 4 147
e 4 148
e 4 149
e 4 151
e 4 152
e 4 153
e 4 154
e 4 155
e 4 156
e 4 157
e 4 158
e 4 159
e 4 160
e 4 161
e 4 162
e 4 163
e 4 164
e 4 165
e 4 171
e 4 172
e 4 173
e 4 174
e 4 175
e 4 181
e 4 182
e 4 183
e 4 184
e 4 185
e 4 186
e 4 187
e 4 188
e 4 189
e 4 190
e 4 191
e 5 11
e 5 12
e 5 13
e 5 14
e 5 15
e 5 46
e 5 47
e 5 48
e 5 49
e 5 50
e 5 51
e 5 52
e 5 53
e 5 54
e 5 55
e 5 57
e 5 58
e 5 59
e 5 60
e 5 61
e 5 64
e 5 65
e 5 66
e 5 67
e 5 68
e 5 91
e 5 92
e 5 93
e 5 94
e 5 95
e 5 106
e 5 107
e 5 108
e 5 109
e 5 110
e 5 116
e 5 117
e 5 118
e 5 119
e 5 120
e 5 121
e 5 122
e 5 123
e 5 124
e 5 125
e 5 127
e 5 128
e 5 129
e 5 130
e 5 131
e 5 138
e 5 139
e 5 140
e 5 141
e 5 142
e 5 151
e 5 152
e 5 153
e 5 154
e 5 155
e 5 161
e 5 162
e 5 163
e 5 164
e 5 165
e 5 171
e 5 172
e 5 173
e 5 174
e 5 175
e 5 176
e 5 177
e 5 178
e 5 179
e 5 180
e 5 187
e 5 188
e 5 189
e 5 190
e 5 191
e 6 7
e 6 9
e 6 12
e 6 14
e 6 27
e 6 29
e 6 32
e 6 34
e 6 37
e 6 39
e 6 42
e 6 44
e 6 47
e 6 49
e 6 52
e 6 54
e 6 58
e 6 60
e 6 65
e 6 67
e 6 73
e 6 75
e 6 81
e 6 83
e 6 87
e 6 89
e 6 92
e 6 94
e 6 97
e 6 99
e 6 102
e 6 104
e 6 107
e 6 109
e 6 112
e 6 114
e 6 117
e 6 119
e 6 122
e 6 124
e 6 128
e 6 130
e 6 134
e 6 136
e 6 139
e 6 141
e 6 146
e 6 148
e 6 152
e 6 154
e 6 157
e 6 159
e 6 162
e 6 164
e 6 167
e 6 169
e 6 172
e 6 174
e 6 177
e 6 179
e 6 183
e 6 185
e 6 188
e 6 190
e 7 8
e 7 11
e 7 13
e 7 26
e 7 28
e 7 31
e 7 33
e 7 36
e 7 38
e 7 41
e 7 43
e 7 46
e 7 48
e 7 51
e 7 53
e 7 57
e 7 59
e 7 64
e 7 66
e 7 72
e 7 74
e 7 80
e 7 82
e 7 86
e 7 88
e 7 91
e 7 93
e 7 96
e 7 98
e 7 101
e 7 103
e 7 106
e 7 108
e 7 111
e 7 113
e 7 116
e 7 118
e 7 121
e 7 123
e 7 127
e 7 129
e 7 133
e 7 135
e 7 138
e 7 140
e 7 145
e 7 147
e 7 151
e 7 153
e 7 156
e 7 158
e 7 161
e 7 163
e 7 166
e 7 168
e 7 171
e 7 173
e 7 176
e 7 178
e 7 182
e 7 184
e 7 187
e 7 189
e 8 10
e 8 12
e 8 15
e 8 27
e 8 30
e 8 32
e 8 35
e 8 37
e 8 40
e 8 42
e 8 45
e 8 47
e 8 50
e 8 52
e 8 55
e 8 58
e 8 61
e 8 65
e 8 68
e 8 73
e 8 76
e 8 81
e 8 84
e 8 87
e 8 90
e 8 92
e 8 95
e 8 97
e 8 100
e 8 102
e 8 105
e 8 107
e 8 110
e 8 112
e 8 115
e 8 117
e 8 120
e 8 122
e 8 125
e 8 128
e 8 131
e 8 134
e 8 137
e 8 139
e 8 142
e 8 146
e 8 149
e 8 152
e 8 155
e 8 157
e 8 160
e 8 162
e 8 165
e 8 167
e 8 170
e 8 172
e 8 175
e 8 177
e 8 180
e 8 183
e 8 186
e 8 188
e 8 191
e 9 10
e 9 11
e 9 15
e 9 26
e 9 30
e 9 31
e 9 35
e 9 36
e 9 40
e 9 41
e 9 45
e 9 46
e 9 50
e 9 51
e 9 55
e 9 57
e 9 61
e 9 64
e 9 68
e 9 72
e 9 76
e 9 80
e 9 84
e 9 86
e 9 90
e 9 91
e 9 95
e 9 96
e 9 100
e 9 101
e 9 105
e 9 106
e 9 110
e 9 111
e 9 115
e 9 116
e 9 120
e 9 121
e 9 125
e 9 127
e 9 131
e 9 133
e 9 137
e 9 138
e 9 142
e 9 145
e 9 149
e 9 151
e 9 155
e 9 156
e 9 160
e 9 161
e 9 165
e 9 166
e 9 170
e 9 171
e 9 175
e 9 176
e 9 180
e 9 182
e 9 186
e 9 187
e 9 191
e 10 13
e 10 14
e 10 28
e 10 29
e 10 33
e 10 34
e 10 38
e 10 39
e 10 43
e 10 44
e 10 48
e 10 49
e 10 53
e 10 54
e 10 59
e 10 60
e 10 66
e 10 67
e 10 74
e 10 75
e 10 82
e 10 83
e 10 88
e 10 89
e 10 93
e 10 94
e 10 98
e 10 99
e 10 103
e 10 104
e 10 108
e 10 109
e 10 113
e 10 114
e 10 118
e 10 119
e 10 123
e 10 124
e 10 129
e 10 130
e 10 135
e 10 136
e 10 140
e 10 141
e 10 147
e 10 148
e 10 153
e 10 154
e 10 158
e 10 159
e 10 163
e 10 164
e 10 168
e 10 169
e 10 173
e 10 174
e 10 178
e 10 179
e 10 184
e 10 185
e 10 189
e 10 190
e 11 16
e 11 23
e 11 24
e 11 25
e 11 27
e 11 29
e 11 32
e 11 34
e 11 37
e 11 39
e 11 42
e 11 44
e 11 56
e 11 62
e 11 69
e 11 73
e 11 75
e 11 77
e 11 79
e 11 81
e 11 83
e 11 85
e 11 87
e 11 89
e 11 97
e 11 99
e 11 102
e 11 104
e 11 112
e 11 114
e 11 126
e 11 132
e 11 134
e 11 136
e 11 143
e 11 146
e 11 148
e 11 150
e 11 157
e 11 159
e 11 167
e 11 169
e 11 181
e 11 183
e 11 185
e 12 16
e 12 23
e 12 24
e 12 25
e 12 26
e 12 28
e 12 31
e 12 33
e 12 36
e 12 38
e 12 41
e 12 43
e 12 56
e 12 62
e 12 69
e 12 72
e 12 74
e 12 77
e 12 79
e 12 80
e 12 82
e 12 85
e 12 86
e 12 88
e 12 96
e 12 98
e 12 101
e 12 103
e 12 111
e 12 113
e 12 126
e 12 132
e 12 133
e 12 135
e 12 143
e 12 145
e 12 147
e 12 150
e 12 156
e 12 158
e 12 166
e 12 168
e 12 181
e 12 182
e 12 184
e 13 16
e 13 23
e 13 24
e 13 25
e 13 27
e 13 30
e 13 32
e 13 35
e 13 37
e 13 40
e 13 42
e 13 45
e 13 56
e 13 62
e 13 69
e 13 73
e 13 76
e 13 77
e 13 79
e 13 81
e 13 84
e 13 85
e 13 87
e 13 90
e 13 97
e 13 100
e 13 102
e 13 105
e 13 112
e 13 115
e 13 126
e 13 132
e 13 134
e 13 137
e 13 143
e 13 146
e 13 149
e 13 150
e 13 157
e 13 160
e 13 167
e 13 170
e 13 181
e 13 183
e 13 186
e 14 16
e 14 23
e 14 24
e 14 25
e 14 26
e 14 30
e 14 31
e 14 35
e 14 36
e 14 40
e 14 41
e 14 45
e 14 56
e 14 62
e 14 69
e 14 72
e 14 76
e 14 77
e 14 79
e 14 80
e 14 84
e 14 85
e 14 86
e 14 90
e 14 96
e 14 100
e 14 101
e 14 105
e 14 111
e 14 115
e 14 126
e 14 132
e 14 133
e 14 137
e 14 143
e 14 145
e 14 149
e 14 150
e 14 156
e 14 160
e 14 166
e 14 170
e 14 181
e 14 182
e 14 186
e 15 16
e 15 23
e 15 24
e 15 25
e 15 28
e 15 29
e 15 33
e 15 34
e 15 38
e 15 39
e 15 43
e 15 44
e 15 56
e 15 62
e 15 69
e 15 74
e 15 75
e 15 77
e 15 79
e 15 82
e 15 83
e 15 85
e 15 88
e 15 89
e 15 98
e 15 99
e 15 103
e 15 104
e 15 113
e 15 114
e 15 126
e 15 132
e 15 135
e 15 136
e 15 143
e 15 147
e 15 148
e 15 150
e 15 158
e 15 159
e 15 168
e 15 169
e 15 181
e 15 184
e 15 185
e 16 17
e 16 21
e 16 22
e 16 51
e 16 52
e 16 53
e 16 54
e 16 55
e 16 57
e 16 58
e 16 59
e 16 60
e 16 61
e 16 63
e 16 64
e 16 65
e 16 66
e 16 67
e 16 68
e 16 70
e 16 78
e 16 121
e 16 122
e 16 123
e 16 124
e 16 125
e 16 127
e 16 128
e 16 129
e 16 130
e 16 131
e 16 138
e 16 139
e 16 140
e 16 141
e 16 142
e 16 144
e 16 176
e 16 177
e 16 178
e 16 179
e 16 180
e 17 18
e 17 20
e 17 26
e 17 27
e 17 28
e 17 29
e 17 30
e 17 46
e 17 47
e 17 48
e 17 49
e 17 50
e 17 62
e 17 69
e 17 71
e 17 80
e 17 81
e 17 82
e 17 83
e 17 84
e 17 86
e 17 87
e 17 88
e 17 89
e 17 90
e 17 106
e 17 107
e 17 108
e 17 109
e 17 110
e 17 116
e 17 117
e 17 118
e 17 119
e 17 120
e 17 143
e 17 156
e 17 157
e 17 158
e 17 159
e 17 160
e 17 171
e 17 172
e 17 173
e 17 174
e 17 175
e 18 19
e 18 23
e 18 31
e 18 32
e 18 33
e 18 34
e 18 35
e 18 51
e 18 52
e 18 53
e 18 54
e 18 55
e 18 56
e 18 70
e 18 72
e 18 73
e 18 74
e 18 75
e 18 76
e 18 79
e 18 91
e 18 92
e 18 93
e 18 94
e 18 95
e 18 101
e 18 102
e 18 103
e 18 104
e 18 105
e 18 127
e 18 128
e 18 129
e 18 130
e 18 131
e 18 132
e 18 145
e 18 146
e 18 147
e 18 148
e 18 149
e 18 161
e 18 162
e 18 163
e 18 164
e 18 165
e 19 21
e 19 24
e 19 36
e 19 37
e 19 38
e 19 39
e 19 40
e 19 57
e 19 58
e 19 59
e 19 60
e 19 61
e 19 62
e 19 63
e 19 77
e 19 80
e 19 81
e 19 82
e 19 83
e 19 84
e 19 96
e 19 97
e 19 98
e 19 99
e 19 100
e 19 106
e 19 107
e 19 108
e 19 109
e 19 110
e 19 121
e 19 122
e 19 123
e 19 124
e 19 125
e 19 126
e 19 133
e 19 134
e 19 135
e 19 136
e 19 137
e 19 151
e 19 152
e 19 153
e 19 154
e 19 155
e 20 23
e 20 31
e 20 32
e 20 33
e 20 34
e 20 35
e 20 51
e 20 52
e 20 53
e 20 54
e 20 55
e 20 56
e 20 63
e 20 72
e 20 73
e 20 74
e 20 75
e 20 76
e 20 77
e 20 91
e 20 92
e 20 93
e 20 94
e 20 95
e 20 96
e 20 97
e 20 98
e 20 99
e 20 100
e 20 121
e 20 122
e 20 123
e 20 124
e 20 125
e 20 126
e 20 133
e 20 134
e 20 135
e 20 136
e 20 137
e 20 151
e 20 152
e 20 153
e 20 154
e 20 155
e 21 26
e 21 27
e 21 28
e 21 29
e 21 30
e 21 46
e 21 47
e 21 48
e 21 49
e 21 50
e 21 56
e 21 69
e 21 72
e 21 73
e 21 74
e 21 75
e 21 76
e 21 86
e 21 87
e 21 88
e 21 89
e 21 90
e 21 91
e 21 92
e 21 93
e 21 94
e 21 95
e 21 116
e 21 117
e 21 118
e 21 119
e 21 120
e 21 132
e 21 145
e 21 146
e 21 147
e 21 148
e 21 149
e 21 161
e 21 162
e 21 163
e 21 164
e 21 165
e 22 26
e 22 27
e 22 28
e 22 29
e 22 30
e 22 46
e 22 47
e 22 48
e 22 49
e 22 50
e 22 56
e 22 62
e 22 72
e 22 73
e 22 74
e 22 75
e 22 76
e 22 80
e 22 81
e 22 82
e 22 83
e 22 84
e 22 91
e 22 92
e 22 93
e 22 94
e 22 95
e 22 106
e 22 107
e 22 108
e 22 109
e 22 110
e 22 126
e 22 133
e 22 134
e 22 135
e 22 136
e 22 137
e 22 151
e 22 152
e 22 153
e 22 154
e 22 155
e 23 46
e 23 47
e 23 48
e 23 49
e 23 50
e 23 57
e 23 58
e 23 59
e 23 60
e 23 61
e 23 64
e 23 65
e 23 66
e 23 67
e 23 68
e 23 71
e 23 106
e 23 107
e 23 108
e 23 109
e 23 110
e 23 116
e 23 117
e 23 118
e 23 119
e 23 120
e 23 138
e 23 139
e 23 140
e 23 141
e 23 142
e 23 171
e 23 172
e 23 173
e 23 174
e 23 175
e 24 46
e 24 47
e 24 48
e 24 49
e 24 50
e 24 51
e 24 52
e 24 53
e 24 54
e 24 55
e 24 64
e 24 65
e 24 66
e 24 67
e 24 68
e 24 91
e 24 92
e 24 93
e 24 94
e 24 95
e 24 116
e 24 117
e 24 118
e 24 119
e 24 120
e 24 127
e 24 128
e 24 129
e 24 130
e 24 131
e 24 161
e 24 162
e 24 163
e 24 164
e 24 165
e 25 46
e 25 47
e 25 48
e 25 49
e 25 50
e 25 51
e 25 52
e 25 53
e 25 54
e 25 55
e 25 57
e 25 58
e 25 59
e 25 60
e 25 61
e 25 91
e 25 92
e 25 93
e 25 94
e 25 95
e 25 106
e 25 107
e 25 108
e 25 109
e 25 110
e 25 121
e 25 122
e 25 123
e 25 124
e 25 125
e 25 151
e 25 152
e 25 153
e 25 154
e 25 155
e 26 32
e 26 34
e 26 37
e 26 39
e 26 42
e 26 44
e 26 52
e 26 54
e 26 58
e 26 60
e 26 63
e 26 65
e 26 67
e 26 70
e 26 78
e 26 97
e 26 99
e 26 102
e 26 104
e 26 112
e 26 114
e 26 122
e 26 124
e 26 128
e 26 130
e 26 139
e 26 141
e 26 144
e 26 167
e 26 169
e 26 177
e 26 179
e 27 31
e 27 33
e 27 36
e 27 38
e 27 41
e 27 43
e 27 51
e 27 53
e 27 57
e 27 59
e 27 63
e 27 64
e 27 66
e 27 70
e 27 78
e 27 96
e 27 98
e 27 101
e 27 103
e 27 111
e 27 113
e 27 121
e 27 123
e 27 127
e 27 129
e 27 138
e 27 140
e 27 144
e 27 166
e 27 168
e 27 176
e 27 178
e 28 32
e 28 35
e 28 37
e 28 40
e 28 42
e 28 45
e 28 52
e 28 55
e 28 58
e 28 61
e 28 63
e 28 65
e 28 68
e 28 70
e 28 78
e 28 97
e 28 100
e 28 102
e 28 105
e 28 112
e 28 115
e 28 122
e 28 125
e 28 128
e 28 131
e 28 139
e 28 142
e 28 144
e 28 167
e 28 170
e 28 177
e 28 180
e 29 31
e 29 35
e 29 36
e 29 40
e 29 41
e 29 45
e 29 51
e 29 55
e 29 57
e 29 61
e 29 63
e 29 64
e 29 68
e 29 70
e 29 78
e 29 96
e 29 100
e 29 101
e 29 105
e 29 111
e 29 115
e 29 121
e 29 125
e 29 127
e 29 131
e 29 138
e 29 142
e 29 144
e 29 166
e 29 170
e 29 176
e 29 180
e 30 33
e 30 34
e 30 38
e 30 39
e 30 43
e 30 44
e 30 53
e 30 54
e 30 59
e 30 60
e 30 63
e 30 66
e 30 67
e 30 70
e 30 78
e 30 98
e 30 99
e 30 103
e 30 104
e 30 113
e 30 114
e 30 123
e 30 124
e 30 129
e 30 130
e 30 140
e 30 141
e 30 144
e 30 168
e 30 169
e 30 178
e 30 179
e 31 37
e 31 39
e 31 42
e 31 44
e 31 47
e 31 49
e 31 58
e 31 60
e 31 65
e 31 67
e 31 71
e 31 81
e 31 83
e 31 87
e 31 89
e 31 107
e 31 109
e 31 112
e 31 114
e 31 117
e 31 119
e 31 139
e 31 141
e 31 157
e 31 159
e 31 172
e 31 174
e 32 36
e 32 38
e 32 41
e 32 43
e 32 46
e 32 48
e 32 57
e 32 59
e 32 64
e 32 66
e 32 71
e 32 80
e 32 82
e 32 86
e 32 88
e 32 106
e 32 108
e 32 111
e 32 113
e 32 116
e 32 118
e 32 138
e 32 140
e 32 156
e 32 158
e 32 171
e 32 173
e 33 37
e 33 40
e 33 42
e 33 45
e 33 47
e 33 50
e 33 58
e 33 61
e 33 65
e 33 68
e 33 71
e 33 81
e 33 84
e 33 87
e 33 90
e 33 107
e 33 110
e 33 112
e 33 115
e 33 117
e 33 120
e 33 139
e 33 142
e 33 157
e 33 160
e 33 172
e 33 175
e 34 36
e 34 40
e 34 41
e 34 45
e 34 46
e 34 50
e 34 57
e 34 61
e 34 64
e 34 68
e 34 71
e 34 80
e 34 84
e 34 86
e 34 90
e 34 106
e 34 110
e 34 111
e 34 115
e 34 116
e 34 120
e 34 138
e 34 142
e 34 156
e 34 160
e 34 171
e 34 175
e 35 38
e 35 39
e 35 43
e 35 44
e 35 48
e 35 49
e 35 59
e 35 60
e 35 66
e 35 67
e 35 71
e 35 82
e 35 83
e 35 88
e 35 89
e 35 108
e 35 109
e 35 113
e 35 114
e 35 118
e 35 119
e 35 140
e 35 141
e 35 158
e 35 159
e 35 173
e 35 174
e 36 42
e 36 44
e 36 47
e 36 49
e 36 52
e 36 54
e 36 65
e 36 67
e 36 73
e 36 75
e 36 87
e 36 89
e 36 92
e 36 94
e 36 102
e 36 104
e 36 117
e 36 119
e 36 128
e 36 130
e 36 146
e 36 148
e 36 162
e 36 164
e 37 41
e 37 43
e 37 46
e 37 48
e 37 51
e 37 53
e 37 64
e 37 66
e 37 72
e 37 74
e 37 86
e 37 88
e 37 91
e 37 93
e 37 101
e 37 103
e 37 116
e 37 118
e 37 127
e 37 129
e 37 145
e 37 147
e 37 161
e 37 163
e 38 42
e 38 45
e 38 47
e 38 50
e 38 52
e 38 55
e 38 65
e 38 68
e 38 73
e 38 76
e 38 87
e 38 90
e 38 92
e 38 95
e 38 102
e 38 105
e 38 117
e 38 120
e 38 128
e 38 131
e 38 146
e 38 149
e 38 162
e 38 165
e 39 41
e 39 45
e 39 46
e 39 50
e 39 51
e 39 55
e 39 64
e 39 68
e 39 72
e 39 76
e 39 86
e 39 90
e 39 91
e 39 95
e 39 101
e 39 105
e 39 116
e 39 120
e 39 127
e 39 131
e 39 145
e 39 149
e 39 161
e 39 165
e 40 43
e 40 44
e 40 48
e 40 49
e 40 53
e 40 54
e 40 66
e 40 67
e 40 74
e 40 75
e 40 88
e 40 89
e 40 93
e 40 94
e 40 103
e 40 104
e 40 118
e 40 119
e 40 129
e 40 130
e 40 147
e 40 148
e 40 163
e 40 164
e 41 47
e 41 49
e 41 52
e 41 54
e 41 58
e 41 60
e 41 73
e 41 75
e 41 81
e 41 83
e 41 92
e 41 94
e 41 97
e 41 99
e 41 107
e 41 109
e 41 122
e 41 124
e 41 134
e 41 136
e 41 152
e 41 154
e 42 46
e 42 48
e 42 51
e 42 53
e 42 57
e 42 59
e 42 72
e 42 74
e 42 80
e 42 82
e 42 91
e 42 93
e 42 96
e 42 98
e 42 106
e 42 108
e 42 121
e 42 123
e 42 133
e 42 135
e 42 151
e 42 153
e 43 47
e 43 50
e 43 52
e 43 55
e 43 58
e 43 61
e 43 73
e 43 76
e 43 81
e 43 84
e 43 92
e 43 95
e 43 97
e 43 100
e 43 107
e 43 110
e 43 122
e 43 125
e 43 134
e 43 137
e 43 152
e 43 155
e 44 46
e 44 50
e 44 51
e 44 55
e 44 57
e 44 61
e 44 72
e 44 76
e 44 80
e 44 84
e 44 91
e 44 95
e 44 96
e 44 100
e 44 106
e 44 110
e 44 121
e 44 125
e 44 133
e 44 137
e 44 151
e 44 155
e 45 48
e 45 49
e 45 53
e 45 54
e 45 59
e 45 60
e 45 74
e 45 75
e 45 82
e 45 83
e 45 93
e 45 94
e 45 98
e 45 99
e 45 108
e 45 109
e 45 123
e 45 124
e 45 135
e 45 136
e 45 153
e 45 154
e 46 63
e 46 70
e 46 77
e 46 78
e 46 79
e 46 85
e 46 97
e 46 99
e 46 102
e 46 104
e 46 112
e 46 114
e 46 144
e 46 150
e 46 167
e 46 169
e 47 63
e 47 70
e 47 77
e 47 78
e 47 79
e 47 85
e 47 96
e 47 98
e 47 101
e 47 103
e 47 111
e 47 113
e 47 144
e 47 150
e 47 166
e 47 168
e 48 63
e 48 70
e 48 77
e 48 78
e 48 79
e 48 85
e 48 97
e 48 100
e 48 102
e 48 105
e 48 112
e 48 115
e 48 144
e 48 150
e 48 167
e 48 170
e 49 63
e 49 70
e 49 77
e 49 78
e 49 79
e 49 85
e 49 96
e 49 100
e 49 101
e 49 105
e 49 111
e 49 115
e 49 144
e 49 150
e 49 166
e 49 170
e 50 63
e 50 70
e 50 77
e 50 78
e 50 79
e 50 85
e 50 98
e 50 99
e 50 103
e 50 104
e 50 113
e 50 114
e 50 144
e 50 150
e 50 168
e 50 169
e 51 62
e 51 69
e 51 71
e 51 81
e 51 83
e 51 85
e 51 87
e 51 89
e 51 112
e 51 114
e 51 143
e 51 157
e 51 159
e 52 62
e 52 69
e 52 71
e 52 80
e 52 82
e 52 85
e 52 86
e 52 88
e 52 111
e 52 113
e 52 143
e 52 156
e 52 158
e 53 62
e 53 69
e 53 71
e 53 81
e 53 84
e 53 85
e 53 87
e 53 90
e 53 112
e 53 115
e 53 143
e 53 157
e 53 160
e 54 62
e 54 69
e 54 71
e 54 80
e 54 84
e 54 85
e 54 86
e 54 90
e 54 111
e 54 115
e 54 143
e 54 156
e 54 160
e 55 62
e 55 69
e 55 71
e 55 82
e 55 83
e 55 85
e 55 88
e 55 89
e 55 113
e 55 114
e 55 143
e 55 158
e 55 159
e 56 57
e 56 58
e 56 59
e 56 60
e 56 61
e 56 64
e 56 65
e 56 66
e 56 67
e 56 68
e 56 71
e 56 78
e 56 138
e 56 139
e 56 140
e 56 141
e 56 142
e 57 69
e 57 73
e 57 75
e 57 79
e 57 87
e 57 89
e 57 102
e 57 104
e 57 132
e 57 146
e 57 148
e 58 69
e 58 72
e 58 74
e 58 79
e 58 86
e 58 88
e 58 101
e 58 103
e 58 132
e 58 145
e 58 147
e 59 69
e 59 73
e 59 76
e 59 79
e 59 87
e 59 90
e 59 102
e 59 105
e 59 132
e 59 146
e 59 149
e 60 69
e 60 72
e 60 76
e 60 79
e 60 86
e 60 90
e 60 101
e 60 105
e 60 132
e 60 145
e 60 149
e 61 69
e 61 74
e 61 75
e 61 79
e 61 88
e 61 89
e 61 103
e 61 104
e 61 132
e 61 147
e 61 148
e 62 64
e 62 65
e 62 66
e 62 67
e 62 68
e 62 70
e 62 127
e 62 128
e 62 129
e 62 130
e 62 131
e 63 69
e 63 86
e 63 87
e 63 88
e 63 89
e 63 90
e 63 116
e 63 117
e 63 118
e 63 119
e 63 120
e 64 73
e 64 75
e 64 77
e 64 81
e 64 83
e 64 97
e 64 99
e 64 126
e 64 134
e 64 136
e 65 72
e 65 74
e 65 77
e 65 80
e 65 82
e 65 96
e 65 98
e 65 126
e 65 133
e 65 135
e 66 73
e 66 76
e 66 77
e 66 81
e 66 84
e 66 97
e 66 100
e 66 126
e 66 134
e 66 137
e 67 72
e 67 76
e 67 77
e 67 80
e 67 84
e 67 96
e 67 100
e 67 126
e 67 133
e 67 137
e 68 74
e 68 75
e 68 77
e 68 82
e 68 83
e 68 98
e 68 99
e 68 126
e 68 135
e 68 136
e 69 121
e 69 122
e 69 123
e 69 124
e 69 125
e 70 80
e 70 81
e 70 82
e 70 83
e 70 84
e 70 106
e 70 107
e 70 108
e 70 109
e 70 110
e 71 72
e 71 73
e 71 74
e 71 75
e 71 76
e 71 91
e 71 92
e 71 93
e 71 94
e 71 95
e 72 78
e 72 112
e 72 114
e 72 139
e 72 141
e 73 78
e 73 111
e 73 113
e 73 138
e 73 140
e 74 78
e 74 112
e 74 115
e 74 139
e 74 142
e 75 78
e 75 111
e 75 115
e 75 138
e 75 142
e 76 78
e 76 113
e 76 114
e 76 140
e 76 141
e 77 116
e 77 117
e 77 118
e 77 119
e 77 120
e 78 91
e 78 92
e 78 93
e 78 94
e 78 95
e 79 106
e 79 107
e 79 108
e 79 109
e 79 110
e 80 102
e 80 104
e 80 128
e 80 130
e 81 101
e 81 103
e 81 127
e 81 129
e 82 102
e 82 105
e 82 128
e 82 131
e 83 101
e 83 105
e 83 127
e 83 131
e 84 103
e 84 104
e 84 129
e 84 130
e 85 91
e 85 92
e 85 93
e 85 94
e 85 95
e 86 97
e 86 99
e 86 122
e 86 124
e 87 96
e 87 98
e 87 121
e 87 123
e 88 97
e 88 100
e 88 122
e 88 125
e 89 96
e 89 100
e 89 121
e 89 125
e 90 98
e 90 99
e 90 123
e 90 124
e 91 112
e 91 114
e 92 111
e 92 113
e 93 112
e 93 115
e 94 111
e 94 115
e 95 113
e 95 114
e 96 117
e 96 119
e 97 116
e 97 118
e 98 117
e 98 120
e 99 116
e 99 120
e 100 118
e 100 119
e 101 107
e 101 109
e 102 106
e 102 108
e 103 107
e 103 110
e 104 106
e 104 110
e 105 108
e 105 109
